\ Model birth-death-regulation-capture-efficiency
\ LP format - for model browsing. Use MPS format to capture full model detail.
Minimize
  k_reg
Subject To
 R0: k_deg_2 = 1
 B_lb_0,_0: p[0,0] >= 0.2934857142857143
 B_ub_0,_0: p[0,0] <= 0.3298
 B_lb_0,_1: p[0,1] >= 0.1838857142857143
 B_ub_0,_1: p[0,1] <= 0.2174
 B_lb_0,_2: p[0,2] >= 0.0548857142857143
 B_ub_0,_2: p[0,2] <= 0.0804
 B_lb_0,_3: p[0,3] >= 0.00228571428571429
 B_ub_0,_3: p[0,3] <= 0.0206
 B_lb_0,_4: p[0,4] >= -0.00951428571428571
 B_ub_0,_4: p[0,4] <= 0.0048
 B_lb_1,_0: p[1,0] >= 0.1834857142857143
 B_ub_1,_0: p[1,0] <= 0.2172
 B_lb_1,_1: p[1,1] >= 0.0376857142857143
 B_ub_1,_1: p[1,1] <= 0.0614
 B_lb_1,_2: p[1,2] >= -0.00351428571428571
 B_ub_1,_2: p[1,2] <= 0.0134
 B_lb_1,_3: p[1,3] >= -0.00991428571428571
 B_ub_1,_3: p[1,3] <= 0.0044
 B_lb_1,_4: p[1,4] >= -0.0113142857142857
 B_ub_1,_4: p[1,4] <= 1
 B_lb_2,_0: p[2,0] >= 0.0522857142857143
 B_ub_2,_0: p[2,0] <= 0.0776
 B_lb_2,_1: p[2,1] >= -0.00311428571428571
 B_ub_2,_1: p[2,1] <= 0.014
 B_lb_2,_2: p[2,2] >= -0.0113142857142857
 B_ub_2,_2: p[2,2] <= 1
 B_lb_2,_3: p[2,3] >= -0.0113142857142857
 B_ub_2,_3: p[2,3] <= 1
 B_lb_2,_4: p[2,4] >= -0.0113142857142857
 B_ub_2,_4: p[2,4] <= 1
 B_lb_3,_0: p[3,0] >= 0.00388571428571429
 B_ub_3,_0: p[3,0] <= 0.0228
 B_lb_3,_1: p[3,1] >= -0.0113142857142857
 B_ub_3,_1: p[3,1] <= 1
 B_lb_3,_2: p[3,2] >= -0.0113142857142857
 B_ub_3,_2: p[3,2] <= 1
 B_lb_3,_3: p[3,3] >= -0.0113142857142857
 B_ub_3,_3: p[3,3] <= 1
 B_lb_3,_4: p[3,4] >= -0.0113142857142857
 B_ub_3,_4: p[3,4] <= 1
 B_lb_4,_0: p[4,0] >= -0.00951428571428571
 B_ub_4,_0: p[4,0] <= 0.0048
 B_lb_4,_1: p[4,1] >= -0.0113142857142857
 B_ub_4,_1: p[4,1] <= 1
 B_lb_4,_2: p[4,2] >= -0.0113142857142857
 B_ub_4,_2: p[4,2] <= 1
 B_lb_4,_3: p[4,3] >= -0.0113142857142857
 B_ub_4,_3: p[4,3] <= 1
 B_lb_4,_4: p[4,4] >= -0.0113142857142857
 B_ub_4,_4: p[4,4] <= 1
 B_lb_5,_0: p[5,0] >= -0.0113142857142857
 B_ub_5,_0: p[5,0] <= 1
 B_lb_5,_1: p[5,1] >= -0.0113142857142857
 B_ub_5,_1: p[5,1] <= 1
 B_lb_5,_2: p[5,2] >= -0.0113142857142857
 B_ub_5,_2: p[5,2] <= 1
 B_lb_5,_3: p[5,3] >= -0.0113142857142857
 B_ub_5,_3: p[5,3] <= 1
 B_lb_5,_4: p[5,4] >= -0.0113142857142857
 B_ub_5,_4: p[5,4] <= 1
 B_lb_6,_0: p[6,0] >= -0.0113142857142857
 B_ub_6,_0: p[6,0] <= 1
 B_lb_6,_1: p[6,1] >= -0.0113142857142857
 B_ub_6,_1: p[6,1] <= 1
 B_lb_6,_2: p[6,2] >= -0.0113142857142857
 B_ub_6,_2: p[6,2] <= 1
 B_lb_6,_3: p[6,3] >= -0.0113142857142857
 B_ub_6,_3: p[6,3] <= 1
 B_lb_6,_4: p[6,4] >= -0.0113142857142857
 B_ub_6,_4: p[6,4] <= 1
 B_marginal_lb_0: p1[0] >= 0.5259421428571429
 B_marginal_ub_0: p1[0] <= 0.6306
 B_marginal_lb_1: p1[1] >= 0.1849421428571428
 B_marginal_ub_1: p1[1] <= 0.287205
 B_marginal_lb_2: p1[2] >= -0.00325785714285713
 B_marginal_ub_2: p1[2] <= 0.0898
 B_marginal_lb_3: p1[3] >= -0.0606578571428571
 B_marginal_ub_3: p1[3] <= 0.025
 B_marginal_lb_4: p1[4] >= -0.0758578571428571
 B_marginal_ub_4: p1[4] <= 0.005
 B_marginal_lb_5: p1[5] >= -0.0778578571428571
 B_marginal_ub_5: p1[5] <= 1
 B_marginal_lb_6: p1[6] >= -0.0778578571428571
 B_marginal_ub_6: p1[6] <= 1
 B_marginal_lb_0: p2[0] >= 0.49524
 B_marginal_ub_0: p2[0] <= 0.6306
 B_marginal_lb_1: p2[1] >= 0.15364
 B_marginal_ub_1: p2[1] <= 0.2866
 B_marginal_lb_2: p2[2] >= -0.03116
 B_marginal_ub_2: p2[2] <= 0.0924
 B_marginal_lb_3: p2[3] >= -0.09196
 B_marginal_ub_3: p2[3] <= 0.024
 B_marginal_lb_4: p2[4] >= -0.10616
 B_marginal_ub_4: p2[4] <= 0.0054
 frechet_lb_0,_0: - p[0,0] + p1[0] + p2[0] <= 1
 frechet_ub_x1_0: p[0,0] - p1[0] <= 0
 frechet_ub_x2_0: p[0,0] - p2[0] <= 0
 frechet_lb_0,_1: - p[0,1] + p1[0] + p2[1] <= 1
 frechet_ub_x1_0: p[0,1] - p1[0] <= 0
 frechet_ub_x2_1: p[0,1] - p2[1] <= 0
 frechet_lb_0,_2: - p[0,2] + p1[0] + p2[2] <= 1
 frechet_ub_x1_0: p[0,2] - p1[0] <= 0
 frechet_ub_x2_2: p[0,2] - p2[2] <= 0
 frechet_lb_0,_3: - p[0,3] + p1[0] + p2[3] <= 1
 frechet_ub_x1_0: p[0,3] - p1[0] <= 0
 frechet_ub_x2_3: p[0,3] - p2[3] <= 0
 frechet_lb_0,_4: - p[0,4] + p1[0] + p2[4] <= 1
 frechet_ub_x1_0: p[0,4] - p1[0] <= 0
 frechet_ub_x2_4: p[0,4] - p2[4] <= 0
 frechet_lb_1,_0: - p[1,0] + p1[1] + p2[0] <= 1
 frechet_ub_x1_1: p[1,0] - p1[1] <= 0
 frechet_ub_x2_0: p[1,0] - p2[0] <= 0
 frechet_lb_1,_1: - p[1,1] + p1[1] + p2[1] <= 1
 frechet_ub_x1_1: p[1,1] - p1[1] <= 0
 frechet_ub_x2_1: p[1,1] - p2[1] <= 0
 frechet_lb_1,_2: - p[1,2] + p1[1] + p2[2] <= 1
 frechet_ub_x1_1: p[1,2] - p1[1] <= 0
 frechet_ub_x2_2: p[1,2] - p2[2] <= 0
 frechet_lb_1,_3: - p[1,3] + p1[1] + p2[3] <= 1
 frechet_ub_x1_1: p[1,3] - p1[1] <= 0
 frechet_ub_x2_3: p[1,3] - p2[3] <= 0
 frechet_lb_1,_4: - p[1,4] + p1[1] + p2[4] <= 1
 frechet_ub_x1_1: p[1,4] - p1[1] <= 0
 frechet_ub_x2_4: p[1,4] - p2[4] <= 0
 frechet_lb_2,_0: - p[2,0] + p1[2] + p2[0] <= 1
 frechet_ub_x1_2: p[2,0] - p1[2] <= 0
 frechet_ub_x2_0: p[2,0] - p2[0] <= 0
 frechet_lb_2,_1: - p[2,1] + p1[2] + p2[1] <= 1
 frechet_ub_x1_2: p[2,1] - p1[2] <= 0
 frechet_ub_x2_1: p[2,1] - p2[1] <= 0
 frechet_lb_2,_2: - p[2,2] + p1[2] + p2[2] <= 1
 frechet_ub_x1_2: p[2,2] - p1[2] <= 0
 frechet_ub_x2_2: p[2,2] - p2[2] <= 0
 frechet_lb_2,_3: - p[2,3] + p1[2] + p2[3] <= 1
 frechet_ub_x1_2: p[2,3] - p1[2] <= 0
 frechet_ub_x2_3: p[2,3] - p2[3] <= 0
 frechet_lb_2,_4: - p[2,4] + p1[2] + p2[4] <= 1
 frechet_ub_x1_2: p[2,4] - p1[2] <= 0
 frechet_ub_x2_4: p[2,4] - p2[4] <= 0
 frechet_lb_3,_0: - p[3,0] + p1[3] + p2[0] <= 1
 frechet_ub_x1_3: p[3,0] - p1[3] <= 0
 frechet_ub_x2_0: p[3,0] - p2[0] <= 0
 frechet_lb_3,_1: - p[3,1] + p1[3] + p2[1] <= 1
 frechet_ub_x1_3: p[3,1] - p1[3] <= 0
 frechet_ub_x2_1: p[3,1] - p2[1] <= 0
 frechet_lb_3,_2: - p[3,2] + p1[3] + p2[2] <= 1
 frechet_ub_x1_3: p[3,2] - p1[3] <= 0
 frechet_ub_x2_2: p[3,2] - p2[2] <= 0
 frechet_lb_3,_3: - p[3,3] + p1[3] + p2[3] <= 1
 frechet_ub_x1_3: p[3,3] - p1[3] <= 0
 frechet_ub_x2_3: p[3,3] - p2[3] <= 0
 frechet_lb_3,_4: - p[3,4] + p1[3] + p2[4] <= 1
 frechet_ub_x1_3: p[3,4] - p1[3] <= 0
 frechet_ub_x2_4: p[3,4] - p2[4] <= 0
 frechet_lb_4,_0: - p[4,0] + p1[4] + p2[0] <= 1
 frechet_ub_x1_4: p[4,0] - p1[4] <= 0
 frechet_ub_x2_0: p[4,0] - p2[0] <= 0
 frechet_lb_4,_1: - p[4,1] + p1[4] + p2[1] <= 1
 frechet_ub_x1_4: p[4,1] - p1[4] <= 0
 frechet_ub_x2_1: p[4,1] - p2[1] <= 0
 frechet_lb_4,_2: - p[4,2] + p1[4] + p2[2] <= 1
 frechet_ub_x1_4: p[4,2] - p1[4] <= 0
 frechet_ub_x2_2: p[4,2] - p2[2] <= 0
 frechet_lb_4,_3: - p[4,3] + p1[4] + p2[3] <= 1
 frechet_ub_x1_4: p[4,3] - p1[4] <= 0
 frechet_ub_x2_3: p[4,3] - p2[3] <= 0
 frechet_lb_4,_4: - p[4,4] + p1[4] + p2[4] <= 1
 frechet_ub_x1_4: p[4,4] - p1[4] <= 0
 frechet_ub_x2_4: p[4,4] - p2[4] <= 0
 frechet_lb_5,_0: - p[5,0] + p1[5] + p2[0] <= 1
 frechet_ub_x1_5: p[5,0] - p1[5] <= 0
 frechet_ub_x2_0: p[5,0] - p2[0] <= 0
 frechet_lb_5,_1: - p[5,1] + p1[5] + p2[1] <= 1
 frechet_ub_x1_5: p[5,1] - p1[5] <= 0
 frechet_ub_x2_1: p[5,1] - p2[1] <= 0
 frechet_lb_5,_2: - p[5,2] + p1[5] + p2[2] <= 1
 frechet_ub_x1_5: p[5,2] - p1[5] <= 0
 frechet_ub_x2_2: p[5,2] - p2[2] <= 0
 frechet_lb_5,_3: - p[5,3] + p1[5] + p2[3] <= 1
 frechet_ub_x1_5: p[5,3] - p1[5] <= 0
 frechet_ub_x2_3: p[5,3] - p2[3] <= 0
 frechet_lb_5,_4: - p[5,4] + p1[5] + p2[4] <= 1
 frechet_ub_x1_5: p[5,4] - p1[5] <= 0
 frechet_ub_x2_4: p[5,4] - p2[4] <= 0
 frechet_lb_6,_0: - p[6,0] + p1[6] + p2[0] <= 1
 frechet_ub_x1_6: p[6,0] - p1[6] <= 0
 frechet_ub_x2_0: p[6,0] - p2[0] <= 0
 frechet_lb_6,_1: - p[6,1] + p1[6] + p2[1] <= 1
 frechet_ub_x1_6: p[6,1] - p1[6] <= 0
 frechet_ub_x2_1: p[6,1] - p2[1] <= 0
 frechet_lb_6,_2: - p[6,2] + p1[6] + p2[2] <= 1
 frechet_ub_x1_6: p[6,2] - p1[6] <= 0
 frechet_ub_x2_2: p[6,2] - p2[2] <= 0
 frechet_lb_6,_3: - p[6,3] + p1[6] + p2[3] <= 1
 frechet_ub_x1_6: p[6,3] - p1[6] <= 0
 frechet_ub_x2_3: p[6,3] - p2[3] <= 0
 frechet_lb_6,_4: - p[6,4] + p1[6] + p2[4] <= 1
 frechet_ub_x1_6: p[6,4] - p1[6] <= 0
 frechet_ub_x2_4: p[6,4] - p2[4] <= 0
 Distribution: p[0,0] + p[0,1] + p[0,2] + p[0,3] + p[0,4] + p[1,0] + p[1,1]
   + p[1,2] + p[1,3] + p[1,4] + p[2,0] + p[2,1] + p[2,2] + p[2,3] + p[2,4]
   + p[3,0] + p[3,1] + p[3,2] + p[3,3] + p[3,4] + p[4,0] + p[4,1] + p[4,2]
   + p[4,3] + p[4,4] + p[5,0] + p[5,1] + p[5,2] + p[5,3] + p[5,4] + p[6,0]
   + p[6,1] + p[6,2] + p[6,3] + p[6,4] <= 1
 Distribution_x1: p1[0] + p1[1] + p1[2] + p1[3] + p1[4] + p1[5] + p1[6]
   <= 1
 Distribution_x2: p2[0] + p2[1] + p2[2] + p2[3] + p2[4] <= 1
 Equation_0,_0: [ - p[0,0] * k_tx_1 - p[0,0] * k_tx_2 + p[0,1] * k_deg_2
   + p[1,0] * k_deg_1 + p[1,1] * k_reg ] = 0
 Equation_0,_1: [ p[0,0] * k_tx_2 - p[0,1] * k_tx_1 - p[0,1] * k_tx_2
   - p[0,1] * k_deg_2 + 2 p[0,2] * k_deg_2 + p[1,1] * k_deg_1
   + 2 p[1,2] * k_reg ] = 0
 Equation_0,_2: [ p[0,1] * k_tx_2 - p[0,2] * k_tx_1 - p[0,2] * k_tx_2
   - 2 p[0,2] * k_deg_2 + 3 p[0,3] * k_deg_2 + p[1,2] * k_deg_1
   + 3 p[1,3] * k_reg ] = 0
 Equation_0,_3: [ p[0,2] * k_tx_2 - p[0,3] * k_tx_1 - p[0,3] * k_tx_2
   - 3 p[0,3] * k_deg_2 + 4 p[0,4] * k_deg_2 + p[1,3] * k_deg_1
   + 4 p[1,4] * k_reg ] = 0
 Equation_1,_0: [ p[0,0] * k_tx_1 - p[1,0] * k_tx_1 - p[1,0] * k_tx_2
   - p[1,0] * k_deg_1 + p[1,1] * k_deg_2 + 2 p[2,0] * k_deg_1
   + 2 p[2,1] * k_reg ] = 0
 Equation_1,_1: [ p[0,1] * k_tx_1 + p[1,0] * k_tx_2 - p[1,1] * k_tx_1
   - p[1,1] * k_tx_2 - p[1,1] * k_deg_1 - p[1,1] * k_deg_2 - p[1,1] * k_reg
   + 2 p[1,2] * k_deg_2 + 2 p[2,1] * k_deg_1 + 4 p[2,2] * k_reg ] = 0
 Equation_1,_2: [ p[0,2] * k_tx_1 + p[1,1] * k_tx_2 - p[1,2] * k_tx_1
   - p[1,2] * k_tx_2 - p[1,2] * k_deg_1 - 2 p[1,2] * k_deg_2
   - 2 p[1,2] * k_reg + 3 p[1,3] * k_deg_2 + 2 p[2,2] * k_deg_1
   + 6 p[2,3] * k_reg ] = 0
 Equation_1,_3: [ p[0,3] * k_tx_1 + p[1,2] * k_tx_2 - p[1,3] * k_tx_1
   - p[1,3] * k_tx_2 - p[1,3] * k_deg_1 - 3 p[1,3] * k_deg_2
   - 3 p[1,3] * k_reg + 4 p[1,4] * k_deg_2 + 2 p[2,3] * k_deg_1
   + 8 p[2,4] * k_reg ] = 0
 Equation_2,_0: [ p[1,0] * k_tx_1 - p[2,0] * k_tx_1 - p[2,0] * k_tx_2
   - 2 p[2,0] * k_deg_1 + p[2,1] * k_deg_2 + 3 p[3,0] * k_deg_1
   + 3 p[3,1] * k_reg ] = 0
 Equation_2,_1: [ p[1,1] * k_tx_1 + p[2,0] * k_tx_2 - p[2,1] * k_tx_1
   - p[2,1] * k_tx_2 - 2 p[2,1] * k_deg_1 - p[2,1] * k_deg_2
   - 2 p[2,1] * k_reg + 2 p[2,2] * k_deg_2 + 3 p[3,1] * k_deg_1
   + 6 p[3,2] * k_reg ] = 0
 Equation_2,_2: [ p[1,2] * k_tx_1 + p[2,1] * k_tx_2 - p[2,2] * k_tx_1
   - p[2,2] * k_tx_2 - 2 p[2,2] * k_deg_1 - 2 p[2,2] * k_deg_2
   - 4 p[2,2] * k_reg + 3 p[2,3] * k_deg_2 + 3 p[3,2] * k_deg_1
   + 9 p[3,3] * k_reg ] = 0
 Equation_2,_3: [ p[1,3] * k_tx_1 + p[2,2] * k_tx_2 - p[2,3] * k_tx_1
   - p[2,3] * k_tx_2 - 2 p[2,3] * k_deg_1 - 3 p[2,3] * k_deg_2
   - 6 p[2,3] * k_reg + 4 p[2,4] * k_deg_2 + 3 p[3,3] * k_deg_1
   + 12 p[3,4] * k_reg ] = 0
 Equation_3,_0: [ p[2,0] * k_tx_1 - p[3,0] * k_tx_1 - p[3,0] * k_tx_2
   - 3 p[3,0] * k_deg_1 + p[3,1] * k_deg_2 + 4 p[4,0] * k_deg_1
   + 4 p[4,1] * k_reg ] = 0
 Equation_3,_1: [ p[2,1] * k_tx_1 + p[3,0] * k_tx_2 - p[3,1] * k_tx_1
   - p[3,1] * k_tx_2 - 3 p[3,1] * k_deg_1 - p[3,1] * k_deg_2
   - 3 p[3,1] * k_reg + 2 p[3,2] * k_deg_2 + 4 p[4,1] * k_deg_1
   + 8 p[4,2] * k_reg ] = 0
 Equation_3,_2: [ p[2,2] * k_tx_1 + p[3,1] * k_tx_2 - p[3,2] * k_tx_1
   - p[3,2] * k_tx_2 - 3 p[3,2] * k_deg_1 - 2 p[3,2] * k_deg_2
   - 6 p[3,2] * k_reg + 3 p[3,3] * k_deg_2 + 4 p[4,2] * k_deg_1
   + 12 p[4,3] * k_reg ] = 0
 Equation_3,_3: [ p[2,3] * k_tx_1 + p[3,2] * k_tx_2 - p[3,3] * k_tx_1
   - p[3,3] * k_tx_2 - 3 p[3,3] * k_deg_1 - 3 p[3,3] * k_deg_2
   - 9 p[3,3] * k_reg + 4 p[3,4] * k_deg_2 + 4 p[4,3] * k_deg_1
   + 16 p[4,4] * k_reg ] = 0
 Equation_4,_0: [ p[3,0] * k_tx_1 - p[4,0] * k_tx_1 - p[4,0] * k_tx_2
   - 4 p[4,0] * k_deg_1 + p[4,1] * k_deg_2 + 5 p[5,0] * k_deg_1
   + 5 p[5,1] * k_reg ] = 0
 Equation_4,_1: [ p[3,1] * k_tx_1 + p[4,0] * k_tx_2 - p[4,1] * k_tx_1
   - p[4,1] * k_tx_2 - 4 p[4,1] * k_deg_1 - p[4,1] * k_deg_2
   - 4 p[4,1] * k_reg + 2 p[4,2] * k_deg_2 + 5 p[5,1] * k_deg_1
   + 10 p[5,2] * k_reg ] = 0
 Equation_4,_2: [ p[3,2] * k_tx_1 + p[4,1] * k_tx_2 - p[4,2] * k_tx_1
   - p[4,2] * k_tx_2 - 4 p[4,2] * k_deg_1 - 2 p[4,2] * k_deg_2
   - 8 p[4,2] * k_reg + 3 p[4,3] * k_deg_2 + 5 p[5,2] * k_deg_1
   + 15 p[5,3] * k_reg ] = 0
 Equation_4,_3: [ p[3,3] * k_tx_1 + p[4,2] * k_tx_2 - p[4,3] * k_tx_1
   - p[4,3] * k_tx_2 - 4 p[4,3] * k_deg_1 - 3 p[4,3] * k_deg_2
   - 12 p[4,3] * k_reg + 4 p[4,4] * k_deg_2 + 5 p[5,3] * k_deg_1
   + 20 p[5,4] * k_reg ] = 0
 Equation_5,_0: [ p[4,0] * k_tx_1 - p[5,0] * k_tx_1 - p[5,0] * k_tx_2
   - 5 p[5,0] * k_deg_1 + p[5,1] * k_deg_2 + 6 p[6,0] * k_deg_1
   + 6 p[6,1] * k_reg ] = 0
 Equation_5,_1: [ p[4,1] * k_tx_1 + p[5,0] * k_tx_2 - p[5,1] * k_tx_1
   - p[5,1] * k_tx_2 - 5 p[5,1] * k_deg_1 - p[5,1] * k_deg_2
   - 5 p[5,1] * k_reg + 2 p[5,2] * k_deg_2 + 6 p[6,1] * k_deg_1
   + 12 p[6,2] * k_reg ] = 0
 Equation_5,_2: [ p[4,2] * k_tx_1 + p[5,1] * k_tx_2 - p[5,2] * k_tx_1
   - p[5,2] * k_tx_2 - 5 p[5,2] * k_deg_1 - 2 p[5,2] * k_deg_2
   - 10 p[5,2] * k_reg + 3 p[5,3] * k_deg_2 + 6 p[6,2] * k_deg_1
   + 18 p[6,3] * k_reg ] = 0
 Equation_5,_3: [ p[4,3] * k_tx_1 + p[5,2] * k_tx_2 - p[5,3] * k_tx_1
   - p[5,3] * k_tx_2 - 5 p[5,3] * k_deg_1 - 3 p[5,3] * k_deg_2
   - 15 p[5,3] * k_reg + 4 p[5,4] * k_deg_2 + 6 p[6,3] * k_deg_1
   + 24 p[6,4] * k_reg ] = 0
Bounds
 p[0,0] <= 1
 p[0,1] <= 1
 p[0,2] <= 1
 p[0,3] <= 1
 p[0,4] <= 1
 p[1,0] <= 1
 p[1,1] <= 1
 p[1,2] <= 1
 p[1,3] <= 1
 p[1,4] <= 1
 p[2,0] <= 1
 p[2,1] <= 1
 p[2,2] <= 1
 p[2,3] <= 1
 p[2,4] <= 1
 p[3,0] <= 1
 p[3,1] <= 1
 p[3,2] <= 1
 p[3,3] <= 1
 p[3,4] <= 1
 p[4,0] <= 1
 p[4,1] <= 1
 p[4,2] <= 1
 p[4,3] <= 1
 p[4,4] <= 1
 p[5,0] <= 1
 p[5,1] <= 1
 p[5,2] <= 1
 p[5,3] <= 1
 p[5,4] <= 1
 p[6,0] <= 1
 p[6,1] <= 1
 p[6,2] <= 1
 p[6,3] <= 1
 p[6,4] <= 1
 p1[0] <= 1
 p1[1] <= 1
 p1[2] <= 1
 p1[3] <= 1
 p1[4] <= 1
 p1[5] <= 1
 p1[6] <= 1
 p2[0] <= 1
 p2[1] <= 1
 p2[2] <= 1
 p2[3] <= 1
 p2[4] <= 1
 k_tx_1 <= 10
 k_tx_2 <= 10
 k_deg_1 <= 10
 k_deg_2 <= 10
 k_reg <= 10
End
